c random clauses
p cnf 17 32
-17 -16 -15 -5 4 6 7 10 0
-17 -16 -8 -6 -2 1 4 13 0
-17 -15 -11 -5 2 4 12 13 0
-17 -14 -13 -9 1 4 5 11 0
-17 -14 -13 -8 -6 -3 -2 4 0
-17 -6 -3 7 8 11 13 14 0
-17 -4 5 7 9 14 15 16 0
-16 -15 -11 -7 -5 -4 1 14 0
-16 -15 -9 -5 1 8 14 17 0
-16 -13 -4 5 6 12 15 17 0
-16 -10 -4 2 3 5 9 14 0
-16 -8 -2 -1 7 11 13 15 0
-16 -4 1 3 7 8 10 14 0
-15 -14 -13 -11 -9 -7 8 17 0
-15 -12 -10 -7 -3 5 9 16 0
-15 -11 -6 2 8 14 16 17 0
-15 -7 -4 -1 3 8 9 11 0
-14 -12 -11 1 2 4 7 15 0
-14 -11 -10 -9 -4 -3 12 15 0
-14 -8 -6 -3 -1 4 5 16 0
-13 -12 -3 1 7 11 14 16 0
-13 -11 -4 1 6 9 14 17 0
-13 -11 -1 4 6 12 14 16 0
-13 -10 -3 1 2 12 15 16 0
-13 -4 2 3 6 11 14 16 0
-13 1 3 6 9 11 12 14 0
-12 -11 -8 -7 -5 2 9 10 0
-12 -10 -9 -7 -3 -2 8 17 0
-12 -9 -7 -6 1 8 16 17 0
-12 -9 -6 -1 5 7 10 17 0
-6 -1 2 3 8 9 16 17 0
-2 1 4 5 8 12 13 15 0
